B34                                     
   1.00000000000000     
     5.0923244926986850    0.0487265525397924   -0.0861188751198671
    -2.5088239013908180    4.3400635778203434    0.1616124306254361
    -0.2116938747261693    0.3925411461670581   11.1074908744627834
   B 
    34
Direct
  0.9783180376835103  0.8413118618336730  0.1885015307533626
  0.0936664774485203  0.0577520254219557  0.3151219867863654
  0.9783176062861482  0.2008260587180993  0.1889570718036078
  0.3062796369184190  0.8811297003910350  0.2681636440503845
  0.3068892553701102  0.4634371072172257  0.2704742922157987
  0.0936726667589991  0.0997345236823711  0.0623372021451915
  0.6362445189452921  0.1757811748502246  0.1879441322368631
  0.6362435047827605  0.5242835842303895  0.1895199925020439
  0.4972321470366007  0.3035252408594332  0.0567629683319731
  0.3068950141756512  0.9072720427402877  0.1069879150075204
  0.4972315020812577  0.2575274540746367  0.3207006419813878
  0.3062783116735698  0.4889717233990381  0.1092989364672888
  0.8413420654617859  0.9144131992049468  0.4250028542908386
  0.9537576534648509  0.1317548399305567  0.5492378567812350
  0.9465465121736752  0.7719703006413091  0.5543651089874371
  0.6234830334673470  0.0956964548453222  0.4614896793745407
  0.8337297098232063  0.9487164661997475  0.6887172856047332
  0.6232703332289207  0.5191513047090368  0.4693959537293103
  0.2876494653323864  0.7962956661716593  0.5455803815818953
  0.4067904423212260  0.7352937591635740  0.6887281127269634
  0.2935384591466679  0.4500035463641417  0.5492675588976550
  0.4276362128065762  0.7109950591880695  0.4155938068366213
  0.6192706208911659  0.0911602432777197  0.6147061713815085
  0.6202686658410028  0.4456054843583028  0.6241874557408322
  0.2935438542566796  0.9073371984482129  0.8281847879724006
  0.6234990943152060  0.5915940748343242  0.9159733638281282
  0.2876532512355672  0.5551547479994805  0.8318776687322164
  0.4276504931740775  0.7804539231305013  0.9618624585177524
  0.8413561280074121  0.9907427813618191  0.9524497326504908
  0.9465479598686510  0.2383797756630442  0.8230895749476586
  0.9537587338864250  0.8858040083122910  0.8282126105387756
  0.6192496703245988  0.5918741568013179  0.7627565990163169
  0.6202585182710721  0.2384623786453944  0.7532695330700875
  0.6232824435406523  0.1679281333308239  0.9080551305108041
 
  0.00000000E+00  0.00000000E+00  0.00000000E+00
  0.00000000E+00  0.00000000E+00  0.00000000E+00
  0.00000000E+00  0.00000000E+00  0.00000000E+00
  0.00000000E+00  0.00000000E+00  0.00000000E+00
  0.00000000E+00  0.00000000E+00  0.00000000E+00
  0.00000000E+00  0.00000000E+00  0.00000000E+00
  0.00000000E+00  0.00000000E+00  0.00000000E+00
  0.00000000E+00  0.00000000E+00  0.00000000E+00
  0.00000000E+00  0.00000000E+00  0.00000000E+00
  0.00000000E+00  0.00000000E+00  0.00000000E+00
  0.00000000E+00  0.00000000E+00  0.00000000E+00
  0.00000000E+00  0.00000000E+00  0.00000000E+00
  0.00000000E+00  0.00000000E+00  0.00000000E+00
  0.00000000E+00  0.00000000E+00  0.00000000E+00
  0.00000000E+00  0.00000000E+00  0.00000000E+00
  0.00000000E+00  0.00000000E+00  0.00000000E+00
  0.00000000E+00  0.00000000E+00  0.00000000E+00
  0.00000000E+00  0.00000000E+00  0.00000000E+00
  0.00000000E+00  0.00000000E+00  0.00000000E+00
  0.00000000E+00  0.00000000E+00  0.00000000E+00
  0.00000000E+00  0.00000000E+00  0.00000000E+00
  0.00000000E+00  0.00000000E+00  0.00000000E+00
  0.00000000E+00  0.00000000E+00  0.00000000E+00
  0.00000000E+00  0.00000000E+00  0.00000000E+00
  0.00000000E+00  0.00000000E+00  0.00000000E+00
  0.00000000E+00  0.00000000E+00  0.00000000E+00
  0.00000000E+00  0.00000000E+00  0.00000000E+00
  0.00000000E+00  0.00000000E+00  0.00000000E+00
  0.00000000E+00  0.00000000E+00  0.00000000E+00
  0.00000000E+00  0.00000000E+00  0.00000000E+00
  0.00000000E+00  0.00000000E+00  0.00000000E+00
  0.00000000E+00  0.00000000E+00  0.00000000E+00
  0.00000000E+00  0.00000000E+00  0.00000000E+00
  0.00000000E+00  0.00000000E+00  0.00000000E+00
