B26                                     
   1.00000000000000     
     5.1517878625134577    0.0708780193177464    0.0007655744841085
    -2.5087511470815231    4.3514310944292793    0.0019676840162593
    -0.0012598000758327   -0.0046950594008069    8.7723022327101550
   B 
    26
Direct
  0.9844858963205395  0.0933792234263968  0.3490192821504516
  0.0948354643365150  0.9747236162472606  0.1809859926134761
  0.3699075148880304  0.3040068612664024  0.2814712445219899
  0.7539903985990641  0.9748301919566323  0.1809868469112652
  0.3699017786549045  0.3040082379227462  0.0805022538129520
  0.2044430736269624  0.5215079174218835  0.3490204774168682
  0.8190120809735656  0.3108830265647171  0.0805034788640790
  0.2044319507673922  0.5215070280150921  0.0129551282393598
  0.0940858714376339  0.6401668014519336  0.1809896787528377
  0.8190198224035259  0.3108834945632385  0.2814738152020645
  0.9844765542543600  0.0933771090067580  0.0129549772289139
  0.4349300373555842  0.6400622014362674  0.1809883711483801
  0.0948426023639049  0.1405387348645110  0.6809860073218520
  0.9844805378057923  0.9115137610623495  0.5129536524837145
  0.7539766841027958  0.7995677105178931  0.6809832749344428
  0.3699246679019584  0.0863554960337168  0.5805070230935806
  0.8189901348756413  0.5285194448531620  0.5805002701430269
  0.9844747382018297  0.9115116526748172  0.8490192232562975
  0.4349360130458430  0.8153060523088304  0.6809895015467563
  0.0940683576602995  0.4743333141932645  0.6809862920332437
  0.2044341486278066  0.7033612118411082  0.8490177958925709
  0.3699248886875974  0.0863561527376750  0.7814726465568654
  0.2044416718377647  0.7033660777184929  0.5129559928489869
  0.8189890970026454  0.5285202868299772  0.7814650545835649
  0.5944533545545111  0.3074266788819174  0.4309739138037075
  0.5944606597134994  0.3074737162029612  0.9309998046387784
 
  0.00000000E+00  0.00000000E+00  0.00000000E+00
  0.00000000E+00  0.00000000E+00  0.00000000E+00
  0.00000000E+00  0.00000000E+00  0.00000000E+00
  0.00000000E+00  0.00000000E+00  0.00000000E+00
  0.00000000E+00  0.00000000E+00  0.00000000E+00
  0.00000000E+00  0.00000000E+00  0.00000000E+00
  0.00000000E+00  0.00000000E+00  0.00000000E+00
  0.00000000E+00  0.00000000E+00  0.00000000E+00
  0.00000000E+00  0.00000000E+00  0.00000000E+00
  0.00000000E+00  0.00000000E+00  0.00000000E+00
  0.00000000E+00  0.00000000E+00  0.00000000E+00
  0.00000000E+00  0.00000000E+00  0.00000000E+00
  0.00000000E+00  0.00000000E+00  0.00000000E+00
  0.00000000E+00  0.00000000E+00  0.00000000E+00
  0.00000000E+00  0.00000000E+00  0.00000000E+00
  0.00000000E+00  0.00000000E+00  0.00000000E+00
  0.00000000E+00  0.00000000E+00  0.00000000E+00
  0.00000000E+00  0.00000000E+00  0.00000000E+00
  0.00000000E+00  0.00000000E+00  0.00000000E+00
  0.00000000E+00  0.00000000E+00  0.00000000E+00
  0.00000000E+00  0.00000000E+00  0.00000000E+00
  0.00000000E+00  0.00000000E+00  0.00000000E+00
  0.00000000E+00  0.00000000E+00  0.00000000E+00
  0.00000000E+00  0.00000000E+00  0.00000000E+00
  0.00000000E+00  0.00000000E+00  0.00000000E+00
  0.00000000E+00  0.00000000E+00  0.00000000E+00
