B26                                     
   1.00000000000000     
     4.8473595614469893    0.0085508385313513    0.0007676197847805
    -2.4313742556418672    4.3884461030543864   -0.1184642433939640
    -0.0010618510236956   -0.2453297148313458    8.9449032263560575
   B 
    26
Direct
  0.1164706169158296  0.3461864808421578  0.5296302180208216
  0.9964030209520349  0.4588736054736451  0.3521831627906726
  0.4021675146240783  0.6718932313821580  0.4382488736971519
  0.7636497780234323  0.3461883045414453  0.5296333820036495
  0.2111848716859889  0.8884415633374979  0.3764556494061049
  0.4026453988808669  0.6786242344820036  0.6354711812810749
  0.8099137419139045  0.6786212650373817  0.6354738458071596
  0.0909939734760949  0.0044168063578558  0.5396442182530982
  0.2076721166534884  0.8814111195390945  0.7012446007915742
  0.0024430346241465  0.4709437176809931  0.6907515149277064
  0.8036572561749189  0.6718938200071987  0.4382521463681970
  0.4473575033618208  0.0044125094230782  0.5396436298381568
  0.0833677736036058  0.0343180348700383  0.0830412183391760
  0.6758369867396590  0.8177655094547619  0.1448365301454241
  0.7960296125356856  0.7017882825904239  0.9816484667447786
  0.8906246726936098  0.2473384183431217  0.1691066195870586
  0.4396654010832383  0.7017929730761125  0.9816459367582450
  0.0771076113075790  0.0275797769858561  0.8858197161556899
  0.7705512951171646  0.3600195544604896  0.9916584632159986
  0.4843798531349928  0.0275829722000863  0.8858161251066281
  0.8845889343299030  0.2352621970020640  0.8305389790758927
  0.1233761715746141  0.3600208050206045  0.9916588674721455
  0.4848532943444705  0.0343110351589983  0.0830404780146441
  0.6793521502594796  0.8247940889925969  0.8200454748886868
  0.5422433984820165  0.5505402487518001  0.2748771293851263
  0.3447800175073945  0.1556664449885571  0.2464155719251413
 
  0.00000000E+00  0.00000000E+00  0.00000000E+00
  0.00000000E+00  0.00000000E+00  0.00000000E+00
  0.00000000E+00  0.00000000E+00  0.00000000E+00
  0.00000000E+00  0.00000000E+00  0.00000000E+00
  0.00000000E+00  0.00000000E+00  0.00000000E+00
  0.00000000E+00  0.00000000E+00  0.00000000E+00
  0.00000000E+00  0.00000000E+00  0.00000000E+00
  0.00000000E+00  0.00000000E+00  0.00000000E+00
  0.00000000E+00  0.00000000E+00  0.00000000E+00
  0.00000000E+00  0.00000000E+00  0.00000000E+00
  0.00000000E+00  0.00000000E+00  0.00000000E+00
  0.00000000E+00  0.00000000E+00  0.00000000E+00
  0.00000000E+00  0.00000000E+00  0.00000000E+00
  0.00000000E+00  0.00000000E+00  0.00000000E+00
  0.00000000E+00  0.00000000E+00  0.00000000E+00
  0.00000000E+00  0.00000000E+00  0.00000000E+00
  0.00000000E+00  0.00000000E+00  0.00000000E+00
  0.00000000E+00  0.00000000E+00  0.00000000E+00
  0.00000000E+00  0.00000000E+00  0.00000000E+00
  0.00000000E+00  0.00000000E+00  0.00000000E+00
  0.00000000E+00  0.00000000E+00  0.00000000E+00
  0.00000000E+00  0.00000000E+00  0.00000000E+00
  0.00000000E+00  0.00000000E+00  0.00000000E+00
  0.00000000E+00  0.00000000E+00  0.00000000E+00
  0.00000000E+00  0.00000000E+00  0.00000000E+00
  0.00000000E+00  0.00000000E+00  0.00000000E+00
