B37                                     
   1.00000000000000     
     5.0565133440149834   -0.0360205199452166    0.0250887478111727
    -2.5654602942629525    4.3699029119211810    0.0778665963656759
     0.0548556829101192    0.2506885655447310   12.4730550550468564
   B 
    37
Direct
  0.2737090707593774  0.9508892301990091  0.6900117163170624
  0.0655880143388411  0.5627650090218371  0.7445840865539658
  0.8568303914716550  0.7440833302302260  0.7025668450515172
  0.3983278122986916  0.8414094970085650  0.8087761388765619
  0.7342173421431041  0.5049066044241707  0.8158484626261098
  0.0602595968150204  0.1403697644834270  0.7312098902970761
  0.2748013906864669  0.9529492307202342  0.9276695494509163
  0.8442964279613925  0.7267165534668885  0.9302192904271238
  0.0613395897776142  0.1223656514190058  0.8769314778403768
  0.3976571335038889  0.1881321668809059  0.8040368857050639
  0.0622430978639469  0.5618670096206573  0.8846687556097973
  0.7314332582361219  0.8501290915726720  0.8120249829544809
  0.2639809279729222  0.5371133069052293  0.0924684809843693
  0.4518131043829008  0.9411731743772469  0.0449878809923686
  0.6537140754188818  0.7142635858334473  0.0440633803104824
  0.2069733288557227  0.8047642319616548  0.1641269985145118
  0.8341593078778555  0.1040578270843816  0.0935577923778705
  0.5310923051279071  0.4683589863911143  0.1621050688304379
  0.4372553791942593  0.8903756729053266  0.2822517996600845
  0.8311315299763284  0.0947798960487665  0.2360287364393978
  0.6442415344791085  0.6906629483277574  0.2747302787951427
  0.2487335566714221  0.5086418999538236  0.2345021098876265
  0.5547510682865138  0.1519256086548907  0.1661309931265309
  0.8831039008978575  0.8196011877991477  0.1612319716619668
  0.5773232163637970  0.1546871424802143  0.4193719346389742
  0.5244762919630717  0.4281810430877524  0.4866156666349306
  0.7659646349477935  0.5553723830017669  0.3725086835692129
  0.5635871105475493  0.1459003091617534  0.5653909613735217
  0.8828057025996675  0.7842992989806272  0.4819441908509126
  0.9677334156835856  0.3523093825240557  0.3693129692937137
  0.9665000916909569  0.3369812373061489  0.6054421319690945
  0.1573716328537302  0.7282569681130859  0.5506083265457583
  0.2087760413247735  0.4522368471933546  0.4856266747683612
  0.8568741040345516  0.0999955534750003  0.4897653712313784
  0.7607609935319511  0.5424021186355474  0.5950329140320327
  0.1661603554919912  0.7407907326295072  0.4098804061692033
  0.0595682639687874  0.3283595181207967  0.9848801956320876
 
  0.00000000E+00  0.00000000E+00  0.00000000E+00
  0.00000000E+00  0.00000000E+00  0.00000000E+00
  0.00000000E+00  0.00000000E+00  0.00000000E+00
  0.00000000E+00  0.00000000E+00  0.00000000E+00
  0.00000000E+00  0.00000000E+00  0.00000000E+00
  0.00000000E+00  0.00000000E+00  0.00000000E+00
  0.00000000E+00  0.00000000E+00  0.00000000E+00
  0.00000000E+00  0.00000000E+00  0.00000000E+00
  0.00000000E+00  0.00000000E+00  0.00000000E+00
  0.00000000E+00  0.00000000E+00  0.00000000E+00
  0.00000000E+00  0.00000000E+00  0.00000000E+00
  0.00000000E+00  0.00000000E+00  0.00000000E+00
  0.00000000E+00  0.00000000E+00  0.00000000E+00
  0.00000000E+00  0.00000000E+00  0.00000000E+00
  0.00000000E+00  0.00000000E+00  0.00000000E+00
  0.00000000E+00  0.00000000E+00  0.00000000E+00
  0.00000000E+00  0.00000000E+00  0.00000000E+00
  0.00000000E+00  0.00000000E+00  0.00000000E+00
  0.00000000E+00  0.00000000E+00  0.00000000E+00
  0.00000000E+00  0.00000000E+00  0.00000000E+00
  0.00000000E+00  0.00000000E+00  0.00000000E+00
  0.00000000E+00  0.00000000E+00  0.00000000E+00
  0.00000000E+00  0.00000000E+00  0.00000000E+00
  0.00000000E+00  0.00000000E+00  0.00000000E+00
  0.00000000E+00  0.00000000E+00  0.00000000E+00
  0.00000000E+00  0.00000000E+00  0.00000000E+00
  0.00000000E+00  0.00000000E+00  0.00000000E+00
  0.00000000E+00  0.00000000E+00  0.00000000E+00
  0.00000000E+00  0.00000000E+00  0.00000000E+00
  0.00000000E+00  0.00000000E+00  0.00000000E+00
  0.00000000E+00  0.00000000E+00  0.00000000E+00
  0.00000000E+00  0.00000000E+00  0.00000000E+00
  0.00000000E+00  0.00000000E+00  0.00000000E+00
  0.00000000E+00  0.00000000E+00  0.00000000E+00
  0.00000000E+00  0.00000000E+00  0.00000000E+00
  0.00000000E+00  0.00000000E+00  0.00000000E+00
  0.00000000E+00  0.00000000E+00  0.00000000E+00
