B24                                     
   1.00000000000000     
     5.0533735250153580   -0.1047113656908962   -0.0042279329020407
    -2.6068744516397540    4.3303279529391014    0.0049266151814066
     0.0066411548138441   -0.0052987109467295    8.0634777304841005
   B 
    24
Direct
  0.3458520872910760  0.3113377698385625  0.1182595656604615
  0.0671802715282492  0.3597433913375592  0.0073048188984160
  0.4698665419101447  0.5507541468181092  0.9438963455196039
  0.0671885447903709  0.3597490969940920  0.2292179287866186
  0.2687831413974405  0.7518251700380552  0.9365249528902543
  0.7092723656397513  0.6747579847235180  0.1182619286123626
  0.2687891302975252  0.7518288757871016  0.3000044102103409
  0.3769964349541231  0.9977625121838827  0.1182649827234555
  0.6608604910200067  0.9534261159472578  0.2292197698916590
  0.4698710810442888  0.5507520232659791  0.2926250646044687
  0.0228441025885468  0.6436058642671358  0.1182650054531574
  0.6608579202865580  0.9534288552457855  0.0073100857994965
  0.0424114506902410  0.3324156336235490  0.6182579118004767
  0.9980771922315191  0.6162828164653239  0.7292176375908291
  0.7964669232858128  0.2242002890380440  0.7999968829977536
  0.9980763423039002  0.6162744023549871  0.5073028559459846
  0.5953908627597834  0.4252797275870137  0.7926198816727956
  0.6882598472647352  0.9782629801491478  0.6182562314984440
  0.5953980012936974  0.4252752017082962  0.4438921731128737
  0.3559904492010744  0.3012735157762820  0.6182528279666534
  0.4044001462762573  0.0226005051663881  0.5072983894509888
  0.7964728564772515  0.2241935879041934  0.4365179795217663
  0.7194090164670714  0.6646897927923898  0.6182563996154309
  0.4043957990005733  0.0226017409873528  0.7292089697757242
 
  0.00000000E+00  0.00000000E+00  0.00000000E+00
  0.00000000E+00  0.00000000E+00  0.00000000E+00
  0.00000000E+00  0.00000000E+00  0.00000000E+00
  0.00000000E+00  0.00000000E+00  0.00000000E+00
  0.00000000E+00  0.00000000E+00  0.00000000E+00
  0.00000000E+00  0.00000000E+00  0.00000000E+00
  0.00000000E+00  0.00000000E+00  0.00000000E+00
  0.00000000E+00  0.00000000E+00  0.00000000E+00
  0.00000000E+00  0.00000000E+00  0.00000000E+00
  0.00000000E+00  0.00000000E+00  0.00000000E+00
  0.00000000E+00  0.00000000E+00  0.00000000E+00
  0.00000000E+00  0.00000000E+00  0.00000000E+00
  0.00000000E+00  0.00000000E+00  0.00000000E+00
  0.00000000E+00  0.00000000E+00  0.00000000E+00
  0.00000000E+00  0.00000000E+00  0.00000000E+00
  0.00000000E+00  0.00000000E+00  0.00000000E+00
  0.00000000E+00  0.00000000E+00  0.00000000E+00
  0.00000000E+00  0.00000000E+00  0.00000000E+00
  0.00000000E+00  0.00000000E+00  0.00000000E+00
  0.00000000E+00  0.00000000E+00  0.00000000E+00
  0.00000000E+00  0.00000000E+00  0.00000000E+00
  0.00000000E+00  0.00000000E+00  0.00000000E+00
  0.00000000E+00  0.00000000E+00  0.00000000E+00
  0.00000000E+00  0.00000000E+00  0.00000000E+00
