B36                                     
   1.00000000000000     
     5.0301685006269405    0.0959670136465500    0.4676587672599213
    -2.4121112126062600    4.2256592041602090   -0.4767900290586898
     1.2571743022597872   -0.7211961418549062   12.3144237776136922
   B 
    36
Direct
  0.4103324025370503  0.5083911758228123  0.1002164430790286
  0.2110900948732428  0.0912101962566179  0.0580724698884483
  0.0601626698724368  0.2554478580615477  0.1747165601495366
  0.6153275168177585  0.2906424963025525  0.0527092468745528
  0.0601634480793924  0.8926931523092089  0.1747164256852395
  0.3651153113680666  0.5595022988779367  0.2480273844221571
  0.7159467745063014  0.2248667909369696  0.1740441890755026
  0.3651172799897273  0.9669074676724126  0.2480255012829082
  0.5413591201775980  0.3748636655996441  0.2951022855181408
  0.7159475719150514  0.5783808080948032  0.1740431781773539
  0.4103285518020613  0.9154081730817606  0.1002154530357891
  0.1389201179269012  0.1719166546708119  0.2916505598000085
  0.2741551960583046  0.6667794942295425  0.5034283689103760
  0.2741570884166363  0.0240505676883582  0.5034278750776240
  0.4539062420974007  0.8755337270686250  0.3839159347353586
  0.3477557216150222  0.9412612330783955  0.6215049685752928
  0.6289205611084501  0.2840360334234505  0.4336707216204955
  0.6289234987240133  0.6918054457785395  0.4336705743894218
  0.7485229793489246  0.1464127998184617  0.6310509069544676
  0.9282835052369489  0.3551683659680006  0.5115398454202079
  0.9282808437708893 -0.0021021347000677  0.5115367942547012
  0.5735122939995555  0.7379178232991899  0.5812971326246388
  0.5735085878916064  0.3301343251804640  0.5812959717923691
  0.8546652179183917  0.0806859384502858  0.3934609555695471
  0.4864088672622550  0.4435320193976005  0.8409030195009225
  0.7920215723177774  0.5135160635356342  0.9147295640611703
  0.5870239605461782  0.7312578583640014  0.9622377103336116
  0.8372507874544465  0.4624248643305340  0.7669222756748676
  0.9912594856129179  0.9306946224386978  0.9568778712647906
  0.4864103142818554  0.7970465226763743  0.8409051647925625
  0.0634558367168291  0.8500112664401315  0.7233027586431103
  0.1421926443501741  0.1292222159709555  0.8402362569592829
  0.8372494061199165  0.0550118200393666  0.7669284299466099
  0.6610106810589217  0.6470636749903981  0.7198471079723413
  0.1421936227707114  0.7664668340344140  0.8402349020365771
  0.7920222254562925  0.1064998808115596  0.9147361919009815
 
  0.00000000E+00  0.00000000E+00  0.00000000E+00
  0.00000000E+00  0.00000000E+00  0.00000000E+00
  0.00000000E+00  0.00000000E+00  0.00000000E+00
  0.00000000E+00  0.00000000E+00  0.00000000E+00
  0.00000000E+00  0.00000000E+00  0.00000000E+00
  0.00000000E+00  0.00000000E+00  0.00000000E+00
  0.00000000E+00  0.00000000E+00  0.00000000E+00
  0.00000000E+00  0.00000000E+00  0.00000000E+00
  0.00000000E+00  0.00000000E+00  0.00000000E+00
  0.00000000E+00  0.00000000E+00  0.00000000E+00
  0.00000000E+00  0.00000000E+00  0.00000000E+00
  0.00000000E+00  0.00000000E+00  0.00000000E+00
  0.00000000E+00  0.00000000E+00  0.00000000E+00
  0.00000000E+00  0.00000000E+00  0.00000000E+00
  0.00000000E+00  0.00000000E+00  0.00000000E+00
  0.00000000E+00  0.00000000E+00  0.00000000E+00
  0.00000000E+00  0.00000000E+00  0.00000000E+00
  0.00000000E+00  0.00000000E+00  0.00000000E+00
  0.00000000E+00  0.00000000E+00  0.00000000E+00
  0.00000000E+00  0.00000000E+00  0.00000000E+00
  0.00000000E+00  0.00000000E+00  0.00000000E+00
  0.00000000E+00  0.00000000E+00  0.00000000E+00
  0.00000000E+00  0.00000000E+00  0.00000000E+00
  0.00000000E+00  0.00000000E+00  0.00000000E+00
  0.00000000E+00  0.00000000E+00  0.00000000E+00
  0.00000000E+00  0.00000000E+00  0.00000000E+00
  0.00000000E+00  0.00000000E+00  0.00000000E+00
  0.00000000E+00  0.00000000E+00  0.00000000E+00
  0.00000000E+00  0.00000000E+00  0.00000000E+00
  0.00000000E+00  0.00000000E+00  0.00000000E+00
  0.00000000E+00  0.00000000E+00  0.00000000E+00
  0.00000000E+00  0.00000000E+00  0.00000000E+00
  0.00000000E+00  0.00000000E+00  0.00000000E+00
  0.00000000E+00  0.00000000E+00  0.00000000E+00
  0.00000000E+00  0.00000000E+00  0.00000000E+00
  0.00000000E+00  0.00000000E+00  0.00000000E+00
