B28                                     
   1.00000000000000     
     6.9104878547103921   -0.1899720250032342   -0.3252998782227527
    -0.0941169797134098    5.4694454643047923   -5.1937901625852998
     0.2407544388419655    0.1367988954544949    5.0344254512405913
   B 
    28
Direct
  0.0734394936206531  0.7519787741845748  0.5419699161938575
  0.1569416744120130  0.8783366443648447  0.9817102332903415
  0.2826425748619591  0.9306093758896076  0.7254878546432979
  0.0734318489856262  0.5669126002057986  0.6624475707047572
  0.4083368602267916  0.8783336596968119  0.9817139237619426
  0.2826416912356518  0.6675311162041911  0.2747127033062065
  0.2826333871071936  0.3882688378549406  0.4789235813639434
  0.4918360739470490  0.5669051180710637  0.6624497731688938
  0.4083359211945933  0.4405473986727310  0.2227062561253444
  0.1569423208734530  0.4405503314721979  0.2227016467384771
  0.2826333650843122  0.6513514391601876  0.9297019569626971
  0.4918433407318578  0.7519720937076392  0.5419692458199048
  0.9918430923441118  0.2519791505774724  0.8475149973549042
  0.7826441093152152  0.1675330861863090  0.9458853862747741
  0.9083409337092699  0.9405502258971824  0.5439271067241203
  0.7826405669582257  0.4306173237056526  0.0212776976044951
  0.6569474758841891  0.9405525171373698  0.5439332785116480
  0.9918426231413559  0.0669153527438248  0.3569065484568415
  0.6569384863315164  0.3783392645300676  0.6605015522505104
  0.5734374538160326  0.0669089806739422  0.3569086438136452
  0.7826385814032857  0.1513588871337441  0.2585453974511988
  0.9083329371987779  0.3783400038457427  0.6604969530714667
  0.5734405257197386  0.2519743164114764  0.8475219457617947
  0.7826416303109064  0.8882722384933969  0.1831491105210806
  0.2826390102058291  0.1803146828798499  0.7933370424769617
  0.7826359438265320  0.6803192070481329  0.4528285168711162
  0.7826388569047924  0.6385738777388125  0.7516050328856084
  0.2826332206491087  0.1385684955124528  0.4110741278901709
 
  0.00000000E+00  0.00000000E+00  0.00000000E+00
  0.00000000E+00  0.00000000E+00  0.00000000E+00
  0.00000000E+00  0.00000000E+00  0.00000000E+00
  0.00000000E+00  0.00000000E+00  0.00000000E+00
  0.00000000E+00  0.00000000E+00  0.00000000E+00
  0.00000000E+00  0.00000000E+00  0.00000000E+00
  0.00000000E+00  0.00000000E+00  0.00000000E+00
  0.00000000E+00  0.00000000E+00  0.00000000E+00
  0.00000000E+00  0.00000000E+00  0.00000000E+00
  0.00000000E+00  0.00000000E+00  0.00000000E+00
  0.00000000E+00  0.00000000E+00  0.00000000E+00
  0.00000000E+00  0.00000000E+00  0.00000000E+00
  0.00000000E+00  0.00000000E+00  0.00000000E+00
  0.00000000E+00  0.00000000E+00  0.00000000E+00
  0.00000000E+00  0.00000000E+00  0.00000000E+00
  0.00000000E+00  0.00000000E+00  0.00000000E+00
  0.00000000E+00  0.00000000E+00  0.00000000E+00
  0.00000000E+00  0.00000000E+00  0.00000000E+00
  0.00000000E+00  0.00000000E+00  0.00000000E+00
  0.00000000E+00  0.00000000E+00  0.00000000E+00
  0.00000000E+00  0.00000000E+00  0.00000000E+00
  0.00000000E+00  0.00000000E+00  0.00000000E+00
  0.00000000E+00  0.00000000E+00  0.00000000E+00
  0.00000000E+00  0.00000000E+00  0.00000000E+00
  0.00000000E+00  0.00000000E+00  0.00000000E+00
  0.00000000E+00  0.00000000E+00  0.00000000E+00
  0.00000000E+00  0.00000000E+00  0.00000000E+00
  0.00000000E+00  0.00000000E+00  0.00000000E+00
